30
1 0 1
2 0 2
2 1 2
3 0 1
3 1 1
3 2 1
4 0 2
4 1 1
4 2 1
4 3 2
5 0 1
5 1 1
5 2 2
5 3 1
5 4 2
6 0 1
6 1 2
6 2 1
6 3 2
6 4 2
6 5 2
7 0 1
7 1 2
7 2 1
7 3 2
7 4 1
7 5 1
7 6 2
8 0 2
8 1 1
8 2 2
8 3 1
8 4 2
8 5 2
8 6 1
8 7 1
9 0 2
9 1 1
9 2 2
9 3 1
9 4 2
9 5 2
9 6 2
9 7 2
9 8 1
10 0 2
10 1 1
10 2 2
10 3 2
10 4 1
10 5 1
10 6 1
10 7 2
10 8 2
10 9 2
11 0 1
11 1 2
11 2 1
11 3 1
11 4 1
11 5 2
11 6 2
11 7 1
11 8 2
11 9 2
11 10 1
12 0 2
12 1 1
12 2 1
12 3 1
12 4 2
12 5 2
12 6 2
12 7 2
12 8 2
12 9 1
12 10 2
12 11 2
13 0 1
13 1 2
13 2 2
13 3 1
13 4 2
13 5 1
13 6 2
13 7 2
13 8 2
13 9 2
13 10 1
13 11 1
13 12 2
14 0 1
14 1 1
14 2 1
14 3 1
14 4 1
14 5 2
14 6 2
14 7 2
14 8 2
14 9 2
14 10 1
14 11 2
14 12 2
14 13 1
15 0 1
15 1 2
15 2 2
15 3 2
15 4 1
15 5 1
15 6 2
15 7 1
15 8 1
15 9 2
15 10 1
15 11 1
15 12 1
15 13 2
15 14 2
16 0 1
16 1 2
16 2 1
16 3 1
16 4 1
16 5 1
16 6 2
16 7 2
16 8 1
16 9 1
16 10 2
16 11 1
16 12 1
16 13 1
16 14 1
16 15 1
17 0 2
17 1 1
17 2 2
17 3 1
17 4 2
17 5 2
17 6 2
17 7 2
17 8 2
17 9 2
17 10 2
17 11 2
17 12 1
17 13 1
17 14 1
17 15 2
17 16 2
18 0 2
18 1 2
18 2 1
18 3 2
18 4 2
18 5 1
18 6 2
18 7 1
18 8 1
18 9 2
18 10 2
18 11 2
18 12 2
18 13 2
18 14 2
18 15 1
18 16 1
18 17 1
19 0 1
19 1 2
19 2 2
19 3 1
19 4 2
19 5 2
19 6 1
19 7 1
19 8 2
19 9 1
19 10 2
19 11 2
19 12 1
19 13 1
19 14 2
19 15 1
19 16 2
19 17 2
19 18 1
20 0 2
20 1 1
20 2 1
20 3 2
20 4 2
20 5 2
20 6 2
20 7 2
20 8 1
20 9 1
20 10 2
20 11 2
20 12 2
20 13 1
20 14 2
20 15 1
20 16 2
20 17 2
20 18 1
20 19 2
21 0 2
21 1 1
21 2 1
21 3 2
21 4 2
21 5 2
21 6 1
21 7 1
21 8 2
21 9 2
21 10 1
21 11 2
21 12 1
21 13 2
21 14 1
21 15 1
21 16 1
21 17 1
21 18 1
21 19 2
21 20 1
22 0 2
22 1 1
22 2 2
22 3 2
22 4 2
22 5 1
22 6 1
22 7 2
22 8 1
22 9 1
22 10 1
22 11 1
22 12 2
22 13 2
22 14 2
22 15 2
22 16 1
22 17 2
22 18 1
22 19 1
22 20 2
22 21 2
23 0 1
23 1 2
23 2 2
23 3 2
23 4 1
23 5 1
23 6 2
23 7 1
23 8 2
23 9 1
23 10 1
23 11 1
23 12 1
23 13 2
23 14 2
23 15 1
23 16 1
23 17 1
23 18 2
23 19 1
23 20 2
23 21 2
23 22 2
24 0 2
24 1 1
24 2 1
24 3 1
24 4 2
24 5 2
24 6 2
24 7 1
24 8 2
24 9 1
24 10 2
24 11 2
24 12 2
24 13 1
24 14 1
24 15 2
24 16 2
24 17 2
24 18 1
24 19 2
24 20 1
24 21 2
24 22 2
24 23 2
25 0 2
25 1 2
25 2 2
25 3 2
25 4 2
25 5 1
25 6 2
25 7 2
25 8 2
25 9 2
25 10 2
25 11 2
25 12 1
25 13 2
25 14 1
25 15 1
25 16 1
25 17 2
25 18 2
25 19 1
25 20 2
25 21 1
25 22 2
25 23 2
25 24 1
26 0 1
26 1 1
26 2 2
26 3 1
26 4 1
26 5 2
26 6 1
26 7 2
26 8 2
26 9 1
26 10 2
26 11 1
26 12 2
26 13 1
26 14 1
26 15 2
26 16 1
26 17 1
26 18 1
26 19 1
26 20 1
26 21 2
26 22 2
26 23 1
26 24 2
26 25 1
27 0 1
27 1 1
27 2 2
27 3 2
27 4 2
27 5 1
27 6 2
27 7 2
27 8 1
27 9 2
27 10 2
27 11 2
27 12 1
27 13 2
27 14 2
27 15 1
27 16 1
27 17 2
27 18 1
27 19 1
27 20 2
27 21 1
27 22 1
27 23 1
27 24 1
27 25 2
27 26 1
28 0 1
28 1 1
28 2 1
28 3 1
28 4 2
28 5 1
28 6 1
28 7 1
28 8 2
28 9 1
28 10 2
28 11 2
28 12 2
28 13 1
28 14 1
28 15 1
28 16 1
28 17 1
28 18 1
28 19 2
28 20 1
28 21 2
28 22 2
28 23 1
28 24 1
28 25 1
28 26 1
28 27 2
29 0 1
29 1 1
29 2 2
29 3 1
29 4 2
29 5 1
29 6 1
29 7 1
29 8 2
29 9 2
29 10 2
29 11 1
29 12 1
29 13 2
29 14 2
29 15 2
29 16 2
29 17 2
29 18 1
29 19 1
29 20 2
29 21 2
29 22 2
29 23 2
29 24 2
29 25 1
29 26 1
29 27 2
29 28 1
